NAME : cutter.42100.tour
COMMENT : Length = 42100
COMMENT : Found by LKH [Keld Helsgaun] Wed Jan  2 22:52:16 2013
TYPE : TOUR
DIMENSION : 178
TOUR_SECTION
1
116
87
145
72
108
36
48
17
92
46
178
15
119
30
99
91
42
172
123
107
73
111
76
177
137
125
57
22
109
5
59
138
165
13
141
135
88
11
66
85
44
23
89
113
6
129
158
115
144
74
142
35
156
41
53
122
173
132
110
154
152
67
146
106
100
114
79
16
18
143
139
166
159
148
38
65
77
176
168
112
128
90
24
98
78
20
151
54
101
160
86
69
127
153
124
43
61
12
39
150
52
71
33
147
3
120
32
130
84
31
56
2
51
60
167
105
40
45
118
62
37
80
175
49
102
155
63
26
14
55
131
27
9
7
4
169
104
93
75
47
164
126
29
70
96
161
170
50
82
81
171
103
25
83
28
95
94
19
162
149
8
157
117
34
163
121
174
97
133
140
58
21
64
136
68
10
134
-1
EOF
